dates = {'2022-02-08','2022-02-09','2022-02-10','2022-02-11','2022-02-12','2022-02-13','2022-02-14','2022-02-15','2022-02-16','2022-02-17','2022-02-18','2022-02-19','2022-02-20','2022-02-21','2022-02-22','2022-02-23','2022-02-24','2022-02-25','2022-02-26','2022-02-27','2022-02-28'};

daysOfWeek = [Tuesday,Wednesday,Thursday,Friday,Saturday,Sunday,Monday,Tuesday,Wednesday,Thursday,Friday,Saturday,Sunday,Monday,Tuesday,Wednesday,Thursday,Friday,Saturday,Sunday,Monday];

% For this week, how many people will be here.
numPeople = [156,156,156,156,156,156,156,163,163,163,162,147,161,157,157,157,148,162
,148,148,135];

% Physical workers need 50 to 100 % more nutrients per day.
numPhysicalWorkers = [51.5,51.5,51.5,51.5,51.5,51.5,55.0,50.5,50.5,50.5,50.5,50.5,47.0,47.0
,47.0,47.0,47.0,46.0,46.0,46.0,46.0];

% Males need +25% more nutrients per day.
numMen = [128,128,128,128,128,128,132,134,134,134,134,136,145,133,129,135,129,135
,135,121,121];

% Num people who do not eat categories. contains = {none, meat, milk, gluten, egg, nut, seed, sugars}
numRefusals = [| 0,0,0,2,9,4,2,9 | 0,0,0,2,9,4,2,9 | 0,0,0,2,9,4,2,9 | 0,0,0,2,9,4,2,9 | 0,0,0,2,9,4,2,9 | 0,0,0,2,9,4,2,9 | 0,0,0,2,9,4,2,9 | 0,12,10,0,0,0,5,0 | 0,12,10,0,0,0,5,0 | 0,12,10,0,0,0,5,0 | 0,2,8,0,0,8,5,0 | 0,4,0,1,0,0,4,0 | 0,0,0,0,4,0,0,0 | 0,4,3,7,8,0,2,5 | 0,4,3,7,8,0,2,5 | 0,4,3,7,8,0,2,5 | 0,1,6,0,5,10,0,12 | 0,0,4,0,0,0,0,13 | 0,0,0,0,12,0,0,4 | 0,0,0,0,12,0,0,4 | 0,0,0,4,3,3,1,0 |];

